num_stars = 1;
dim = 8;
sectors = [|
1, 2, 2, 2, 2, 3, 3, 3|
1, 4, 4, 4, 4, 3, 3, 3|
1, 1, 5, 5, 5, 3, 3, 6|
5, 5, 5, 5, 5, 3, 3, 6|
5, 5, 5, 5, 3, 3, 3, 6|
5, 5, 5, 5, 3, 3, 6, 6|
5, 5, 5, 5, 7, 7, 7, 8|
5, 7, 7, 7, 7, 7, 7, 8|
];